c This graph is produced by Sof A. Lee
c Experiment on graph colouring using phase coupled oscillators
c Date: 17/02/2008 11:46:52 PM
p edge 20 30
e 1 14
e 1 8
e 1 3
e 2 5
e 2 19
e 2 10
e 3 20
e 3 9
e 4 10
e 4 11
e 4 17
e 5 18
e 5 17
e 6 8
e 6 19
e 6 18
e 7 13
e 7 8
e 7 20
e 9 11
e 9 15
e 10 15
e 11 12
e 12 16
e 12 20
e 13 18
e 13 16
e 14 19
e 14 15
e 16 17
